--- Job bchfcnet.gms Start 02/09/22 10:32:40 34.3.0 rac355f3 WEX-WEI x86 64bit/MS Windows
--- Applying:
    C:\GAMS\34\gmsprmNT.txt
--- GAMS Parameters defined
    Input C:\Users\dekhi\Desktop\gamsworld\FCNetLib\test\bchfcnet.gms
    PageSize 0
    ScrDir C:\Users\dekhi\Desktop\gamsworld\FCNetLib\test\225a\
    SysDir C:\GAMS\34\
    LogOption 3
    ErrMsg 1
    ErrorLog 99
    IDE 1
    ResLim 3600
    LstTitleLeftAligned 1
Licensee: Eval License                                   S211214|0002AW-GEN
          Ostfalia Hochschule fuer angewandte Wissenschaften        DCE1645
          C:\Users\dekhi\Documents\GAMS\gamslice.txt
          License Admin: Mohamed Ali Dekhil, dekhil.medali@gmail.com       
          Evaluation license: Not for commercial or production use
GAMS 34.3.0   Copyright (C) 1987-2021 GAMS Development. All rights reserved
--- Starting compilation
--- bchfcnet.gms(34) 2 Mb
--- . decl.gms(15) 2 Mb
--- bchfcnet.gms(38) 2 Mb
--- . p100x588c.inc(1207) 3 Mb
--- bchfcnet.gms(67) 3 Mb
--- . equs.gms(20) 3 Mb
--- bchfcnet.gms(97) 3 Mb
--- call rm -f bchout_i.gdx startcut.txt startheur.txt cuthist.gdx agap.txt rgap.txt cntfail.txt
--- bchfcnet.gms(118) 3 Mb
--- Starting execution: elapsed 0:00:00.174
--- bchfcnet.gms(1265) 4 Mb
--- GDX File (execute_unload) C:\Users\dekhi\Desktop\gamsworld\FCNetLib\test\net.gdx
--- bchfcnet.gms(1356) 4 Mb
--- GDXin=C:\Users\dekhi\Desktop\gamsworld\FCNetLib\test\points\p100x588c.gdx
--- GDX File (execute_load) C:\Users\dekhi\Desktop\gamsworld\FCNetLib\test\points\p100x588c.gdx
--- Generating MIP model master
--- bchfcnet.gms(1360) 5 Mb
---   689 rows  1,177 columns  3,468 non-zeroes
---   588 discrete-columns
--- Executing CPLEX (Solvelink=2): elapsed 0:00:00.269

IBM ILOG CPLEX   34.3.0 rac355f3 Released Feb 25, 2021 WEI x86 64bit/MS Window

--- GAMS/Cplex Link licensed for continuous and discrete problems.

Reading parameter(s) from "C:\Users\dekhi\Desktop\gamsworld\FCNetLib\test\cplex.op2"
>>  mipstart 1
Finished reading from "C:\Users\dekhi\Desktop\gamsworld\FCNetLib\test\cplex.op2"

--- Space for names approximately 0.04 Mb
--- Use option 'names no' to turn use of names off
--- GMO memory 0.72 Mb (peak 0.72 Mb)
--- Dictionary memory 0.00 Mb
--- Cplex 20.1.0.0 link memory 0.03 Mb (peak 0.12 Mb)
--- Starting Cplex

Version identifier: 20.1.0.0 | 2020-11-10 | 9bedb6d68
CPXPARAM_Threads                                 1
CPXPARAM_MIP_Display                             4
CPXPARAM_TimeLimit                               3600
CPXPARAM_MIP_Tolerances_AbsMIPGap                0
CPXPARAM_MIP_Tolerances_MIPGap                   0
Generic callback                                 0x50
Processing 1 MIP starts.
MIP start 'm1' defined solution with objective 172770.0000.
1 of 1 MIP starts provided solutions.
MIP start 'm1' defined initial solution with objective 172770.0000.
Tried aggregator 1 time.
MIP Presolve eliminated 62 rows and 1 columns.
MIP Presolve added 124 rows and 0 columns.
Reduced MIP has 750 rows, 1176 columns, and 2476 nonzeros.
Reduced MIP has 588 binaries, 0 generals, 0 SOSs, and 0 indicators.
Presolve time = 0.00 sec. (4.50 ticks)
Probing time = 0.00 sec. (0.14 ticks)
Tried aggregator 1 time.
Detecting symmetries...
Reduced MIP has 750 rows, 1176 columns, and 2476 nonzeros.
Reduced MIP has 588 binaries, 0 generals, 0 SOSs, and 0 indicators.
Presolve time = 0.02 sec. (4.43 ticks)
Probing time = 0.00 sec. (0.14 ticks)
MIP emphasis: balance optimality and feasibility.
MIP search method: dynamic search.
Parallel mode: none, using 1 thread.
Tried aggregator 1 time.
LP Presolve eliminated 526 rows and 526 columns.
Aggregator did 62 substitutions.
Reduced LP has 162 rows, 588 columns, and 1300 nonzeros.
Presolve time = 0.00 sec. (0.61 ticks)

Iteration log . . .
Iteration:     1   Dual objective     =         19469.000000
Initializing dual steep norms . . .
Root relaxation solution time = 0.00 sec. (1.15 ticks)

        Nodes                                         Cuts/
   Node  Left     Objective  IInf  Best Integer    Best Bound    ItCnt     Gap

*     0+    0                       172770.0000        0.0000           100.00%
Found incumbent of value 172770.000000 after 0.02 sec. (11.85 ticks)
      0     0    97579.1106     7   172770.0000    97579.1106       27   43.52%
      0     0   129993.9031    14   172770.0000      Cuts: 19       52   24.76%
      0     0   139092.0622    12   172770.0000      Cuts: 23       71   19.49%
      0     0   146355.7164    18   172770.0000      Cuts: 16       87   15.29%
      0     0   149183.6110     6   172770.0000      Cuts: 25      113   13.65%
      0     0   152674.2667    12   172770.0000       Cuts: 5      130   11.63%
Detecting symmetries...
      0     0   154790.0464    13   172770.0000       Cuts: 9      142   10.41%
      0     0   158703.0806    18   172770.0000       Cuts: 9      159    8.14%
      0     0   158932.2118    19   172770.0000      Cuts: 16      186    8.01%
      0     0   162001.5788    21   172770.0000   Flowcuts: 3      199    6.23%
      0     0   163203.8694     2   172770.0000      Cuts: 22      208    5.54%
      0     0   163206.6660    11   172770.0000   Flowcuts: 1      221    5.54%
      0     0   163206.8420    11   172770.0000   Flowcuts: 1      222    5.54%
Detecting symmetries...
      0     2   163206.8420    11   172770.0000   163210.8507      222    5.53%
Elapsed time = 0.34 sec. (171.30 ticks, tree = 0.01 MB, solutions = 1)
    515    57   172194.4226     9   172770.0000   168913.8741     1990    2.23%
                                                      Cuts: 6                  

Cover cuts applied:  8
Implied bound cuts applied:  2
Flow cuts applied:  28
Mixed integer rounding cuts applied:  11
Flow path cuts applied:  8
Zero-half cuts applied:  1
Multi commodity flow cuts applied:  1

Root node processing (before b&c):
  Real time             =    0.34 sec. (171.31 ticks)
Sequential b&c:
  Real time             =    0.31 sec. (325.74 ticks)
                          ------------
Total (root+branch&cut) =    0.66 sec. (497.05 ticks)

--- MIP status (101): integer optimal solution.
--- Cplex Time: 0.66sec (det. 497.05 ticks)

--- Fixing integer variables and solving final LP...

Version identifier: 20.1.0.0 | 2020-11-10 | 9bedb6d68
CPXPARAM_Advance                                 2
CPXPARAM_Threads                                 1
CPXPARAM_MIP_Display                             4
CPXPARAM_TimeLimit                               3600
CPXPARAM_MIP_Tolerances_AbsMIPGap                0
CPXPARAM_MIP_Tolerances_MIPGap                   0
Tried aggregator 1 time.
LP Presolve eliminated 688 rows and 1177 columns.
All rows and columns eliminated.
Presolve time = 0.00 sec. (0.41 ticks)

--- Fixed MIP status (1): optimal.
--- Cplex Time: 0.00sec (det. 0.70 ticks)


Proven optimal solution
MIP Solution:       172770.000000    (2674 iterations, 746 nodes)
Final Solve:        172770.000000    (0 iterations)

Best possible:      172770.000000
Absolute gap:            0.000000
Relative gap:            0.000000

--- Reading solution for model master
*** Status: Normal completion
--- Job bchfcnet.gms Stop 02/09/22 10:32:43 elapsed 0:00:02.417
